p wcnf 448 672 1
1 1 0
1 2 0
1 3 0
1 4 0
1 5 0
1 6 0
1 7 0
1 8 0
1 9 0
1 10 0
1 11 0
1 12 0
1 1 1 1 1 1 1 1 1 1 1 1 0
1 1 1 1 1 1 1 1 1 1 1 1 0
1 1 1 1 1 1 1 1 1 1 1 1 0
1 1 1 1 1 1 1 1 1 1 1 1 0
1 1 1 1 1 1 1 1 1 1 1 1 0
1 1 1 1 1 1 1 1 1 1 1 1 0
1 1 1 1 1 1 1 1 1 1 1 1 0
1 1 1 1 1 1 1 1 1 1 1 1 0
1 1 1 1 1 1 1 1 1 1 1 1 0
1 1 1 1 1 1 1 1 1 1 1 1 0
1 1 1 1 1 1 1 1 1 1 1 1 0
1 1 1 1 1 1 1 1 1 1 1 1 0
1 1 1 1 1 1 1 1 1 1 1 1 0
1 1 1 1 1 1 1 1 1 1 1 1 0
1 1 1 1 1 1 1 1 1 1 1 1 0
1 1 1 1 1 1 1 1 1 1 1 1 0
1 1 1 1 1 1 1 1 1 1 1 1 0
1 1 1 1 1 1 1 1 1 1 1 1 0
1 1 1 1 1 1 1 1 1 1 1 1 0
1 1 1 1 1 1 1 1 1 1 1 1 0
1 1 1 1 1 1 1 1 1 1 1 1 0
1 1 1 1 1 1 1 1 1 1 1 1 0
1 1 1 1 1 1 1 1 1 1 1 1 0
1 1 1 1 1 1 1 1 1 1 1 1 0
1 1 1 1 1 1 1 1 1 1 1 1 0
1 1 1 1 1 1 1 1 1 1 1 1 0
1 1 1 1 1 1 1 1 1 1 1 1 0
1 1 1 1 1 1 1 1 1 1 1 1 0
1 1 1 1 1 1 1 1 1 1 1 1 0
1 1 1 1 1 1 1 1 1 1 1 1 0
1 1 1 1 1 1 1 1 1 1 1 1 0
1 1 1 1 1 1 1 1 1 1 1 1 0
1 1 1 1 1 1 1 1 1 1 1 1 0
1 1 1 1 1 1 1 1 1 1 1 1 0
1 1 1 1 1 1 1 1 1 1 1 1 0
1 1 1 1 1 1 1 1 1 1 1 1 0
1 1 1 1 0
1  0
1 4 3 1 0
1  0
1 7 6 1 0
1  0
1 9 8 2 0
1  0
1 15 14 1 0
1  0
1 17 16 2 0
1  0
1 22 21 5 0
1  0
1 35 34 1 0
1  0
1 37 36 2 0
1  0
1 42 41 5 0
1  0
1 54 53 13 0
1  0
1 83 82 1 0
1  0
1 85 84 2 0
1  0
1 90 89 5 0
1  0
1 102 101 13 0
1  0
1 130 129 33 0
1  0
1 195 194 1 0
1  0
1 197 196 2 0
1  0
1 202 201 5 0
1  0
1 214 213 13 0
1  0
1 242 241 33 0
1  0
1 306 305 81 0
1  0
1 11 10 3 0
1  0
1 19 18 3 0
1  0
1 24 23 6 0
1  0
1 39 38 3 0
1  0
1 44 43 6 0
1  0
1 56 55 14 0
1  0
1 87 86 3 0
1  0
1 92 91 6 0
1  0
1 104 103 14 0
1  0
1 132 131 34 0
1  0
1 199 198 3 0
1  0
1 204 203 6 0
1  0
1 216 215 14 0
1  0
1 244 243 34 0
1  0
1 308 307 82 0
1  0
1 12 10 4 0
1  0
1 20 18 4 0
1  0
1 27 26 8 0
1  0
1 40 38 4 0
1  0
1 47 46 8 0
1  0
1 59 58 16 0
1  0
1 88 86 4 0
1  0
1 95 94 8 0
1  0
1 107 106 16 0
1  0
1 135 134 36 0
1  0
1 200 198 4 0
1  0
1 207 206 8 0
1  0
1 219 218 16 0
1  0
1 247 246 36 0
1  0
1 311 310 84 0
1  0
1 30 29 10 0
1  0
1 50 49 10 0
1  0
1 62 61 18 0
1  0
1 98 97 10 0
1  0
1 110 109 18 0
1  0
1 138 137 38 0
1  0
1 210 209 10 0
1  0
1 222 221 18 0
1  0
1 250 249 38 0
1  0
1 314 313 86 0
1  0
1 12 11 7 0
1  0
1 25 23 7 0
1  0
1 28 26 9 0
1  0
1 45 43 7 0
1  0
1 48 46 9 0
1  0
1 66 65 21 0
1  0
1 93 91 7 0
1  0
1 96 94 9 0
1  0
1 114 113 21 0
1  0
1 142 141 41 0
1  0
1 205 203 7 0
1  0
1 208 206 9 0
1  0
1 226 225 21 0
1  0
1 254 253 41 0
1  0
1 318 317 89 0
1  0
1 31 29 11 0
1  0
1 51 49 11 0
1  0
1 69 68 23 0
1  0
1 99 97 11 0
1  0
1 117 116 23 0
1  0
1 145 144 43 0
1  0
1 211 209 11 0
1  0
1 229 228 23 0
1  0
1 257 256 43 0
1  0
1 321 320 91 0
1  0
1 32 29 12 0
1  0
1 52 49 12 0
1  0
1 73 72 26 0
1  0
1 100 97 12 0
1  0
1 121 120 26 0
1  0
1 149 148 46 0
1  0
1 212 209 12 0
1  0
1 233 232 26 0
1  0
1 261 260 46 0
1  0
1 325 324 94 0
1  0
1 77 76 29 0
1  0
1 125 124 29 0
1  0
1 153 152 49 0
1  0
1 237 236 29 0
1  0
1 265 264 49 0
1  0
1 329 328 97 0
1  0
1 20 19 15 0
1  0
1 25 24 15 0
1  0
1 28 27 17 0
1  0
1 57 55 15 0
1  0
1 60 58 17 0
1  0
1 67 65 22 0
1  0
1 105 103 15 0
1  0
1 108 106 17 0
1  0
1 115 113 22 0
1  0
1 158 157 53 0
1  0
1 217 215 15 0
1  0
1 220 218 17 0
1  0
1 227 225 22 0
1  0
1 270 269 53 0
1  0
1 334 333 101 0
1  0
1 31 30 19 0
1  0
1 63 61 19 0
1  0
1 70 68 24 0
1  0
1 111 109 19 0
1  0
1 118 116 24 0
1  0
1 161 160 55 0
1  0
1 223 221 19 0
1  0
1 230 228 24 0
1  0
1 273 272 55 0
1  0
1 337 336 103 0
1  0
1 32 30 20 0
1  0
1 64 61 20 0
1  0
1 74 72 27 0
1  0
1 112 109 20 0
1  0
1 122 120 27 0
1  0
1 165 164 58 0
1  0
1 224 221 20 0
1  0
1 234 232 27 0
1  0
1 277 276 58 0
1  0
1 341 340 106 0
1  0
1 78 76 30 0
1  0
1 126 124 30 0
1  0
1 169 168 61 0
1  0
1 238 236 30 0
1  0
1 281 280 61 0
1  0
1 345 344 109 0
1  0
1 32 31 25 0
1  0
1 71 68 25 0
1  0
1 75 72 28 0
1  0
1 119 116 25 0
1  0
1 123 120 28 0
1  0
1 174 173 65 0
1  0
1 231 228 25 0
1  0
1 235 232 28 0
1  0
1 286 285 65 0
1  0
1 350 349 113 0
1  0
1 79 76 31 0
1  0
1 127 124 31 0
1  0
1 178 177 68 0
1  0
1 239 236 31 0
1  0
1 290 289 68 0
1  0
1 354 353 116 0
1  0
1 80 76 32 0
1  0
1 128 124 32 0
1  0
1 183 182 72 0
1  0
1 240 236 32 0
1  0
1 295 294 72 0
1  0
1 359 358 120 0
1  0
1 188 187 76 0
1  0
1 300 299 76 0
1  0
1 364 363 124 0
1  0
1 40 39 35 0
1  0
1 45 44 35 0
1  0
1 48 47 37 0
1  0
1 57 56 35 0
1  0
1 60 59 37 0
1  0
1 67 66 42 0
1  0
1 133 131 35 0
1  0
1 136 134 37 0
1  0
1 143 141 42 0
1  0
1 159 157 54 0
1  0
1 245 243 35 0
1  0
1 248 246 37 0
1  0
1 255 253 42 0
1  0
1 271 269 54 0
1  0
1 370 369 129 0
1  0
1 51 50 39 0
1  0
1 63 62 39 0
1  0
1 70 69 44 0
1  0
1 139 137 39 0
1  0
1 146 144 44 0
1  0
1 162 160 56 0
1  0
1 251 249 39 0
1  0
1 258 256 44 0
1  0
1 274 272 56 0
1  0
1 373 372 131 0
1  0
1 52 50 40 0
1  0
1 64 62 40 0
1  0
1 74 73 47 0
1  0
1 140 137 40 0
1  0
1 150 148 47 0
1  0
1 166 164 59 0
1  0
1 252 249 40 0
1  0
1 262 260 47 0
1  0
1 278 276 59 0
1  0
1 377 376 134 0
1  0
1 78 77 50 0
1  0
1 154 152 50 0
1  0
1 170 168 62 0
1  0
1 266 264 50 0
1  0
1 282 280 62 0
1  0
1 381 380 137 0
1  0
1 52 51 45 0
1  0
1 71 69 45 0
1  0
1 75 73 48 0
1  0
1 147 144 45 0
1  0
1 151 148 48 0
1  0
1 175 173 66 0
1  0
1 259 256 45 0
1  0
1 263 260 48 0
1  0
1 287 285 66 0
1  0
1 386 385 141 0
1  0
1 79 77 51 0
1  0
1 155 152 51 0
1  0
1 179 177 69 0
1  0
1 267 264 51 0
1  0
1 291 289 69 0
1  0
1 390 389 144 0
1  0
1 80 77 52 0
1  0
1 156 152 52 0
1  0
1 184 182 73 0
1  0
1 268 264 52 0
1  0
1 296 294 73 0
1  0
1 395 394 148 0
1  0
1 189 187 77 0
1  0
1 301 299 77 0
1  0
1 400 399 152 0
1  0
1 64 63 57 0
1  0
1 71 70 57 0
1  0
1 75 74 60 0
1  0
1 163 160 57 0
1  0
1 167 164 60 0
1  0
1 176 173 67 0
1  0
1 275 272 57 0
1  0
1 279 276 60 0
1  0
1 288 285 67 0
1  0
1 406 405 157 0
1  0
1 79 78 63 0
1  0
1 171 168 63 0
1  0
1 180 177 70 0
1  0
1 283 280 63 0
1  0
1 292 289 70 0
1  0
1 410 409 160 0
1  0
1 80 78 64 0
1  0
1 172 168 64 0
1  0
1 185 182 74 0
1  0
1 284 280 64 0
1  0
1 297 294 74 0
1  0
1 415 414 164 0
1  0
1 190 187 78 0
1  0
1 302 299 78 0
1  0
1 420 419 168 0
1  0
1 80 79 71 0
1  0
1 181 177 71 0
1  0
1 186 182 75 0
1  0
1 293 289 71 0
1  0
1 298 294 75 0
1  0
1 426 425 173 0
1  0
1 191 187 79 0
1  0
1 303 299 79 0
1  0
1 431 430 177 0
1  0
1 192 187 80 0
1  0
1 304 299 80 0
1  0
1 437 436 182 0
1  0
1 443 442 187 0
1  0
1 88 87 83 0
1  0
1 93 92 83 0
1  0
1 96 95 85 0
1  0
1 105 104 83 0
1  0
1 108 107 85 0
1  0
1 115 114 90 0
1  0
1 133 132 83 0
1  0
1 136 135 85 0
1  0
1 143 142 90 0
1  0
1 159 158 102 0
1  0
1 309 307 83 0
1  0
1 312 310 85 0
1  0
1 319 317 90 0
1  0
1 335 333 102 0
1  0
1 371 369 130 0
1  0
1 99 98 87 0
1  0
1 111 110 87 0
1  0
1 118 117 92 0
1  0
1 139 138 87 0
1  0
1 146 145 92 0
1  0
1 162 161 104 0
1  0
1 315 313 87 0
1  0
1 322 320 92 0
1  0
1 338 336 104 0
1  0
1 374 372 132 0
1  0
1 100 98 88 0
1  0
1 112 110 88 0
1  0
1 122 121 95 0
1  0
1 140 138 88 0
1  0
1 150 149 95 0
1  0
1 166 165 107 0
1  0
1 316 313 88 0
1  0
1 326 324 95 0
1  0
1 342 340 107 0
1  0
1 378 376 135 0
1  0
1 126 125 98 0
1  0
1 154 153 98 0
1  0
1 170 169 110 0
1  0
1 330 328 98 0
1  0
1 346 344 110 0
1  0
1 382 380 138 0
1  0
1 100 99 93 0
1  0
1 119 117 93 0
1  0
1 123 121 96 0
1  0
1 147 145 93 0
1  0
